Int a <- input;

case a = 1, {
    output `one`;
}
case a = 2, {
    output `two`;
}
case a = 3, {
    output `three`;
}
case a >= 4 and a <= 9, {
    output `something between four and nine`;
}
elsecase, {
    output `two digits or more`;
}
case a = 100, {
    output `another attempt`;
}